NAME: PointSet_Angle_45_3
TYPE: TSP
COMMENT: Points chosen discrete uniformly at random out of ${0, \ldots, 500}^2$.
DIMENSION: 45
EDGE_WEIGHT_TYPE: EUC_2D
NODE_COORD_SECTION
1 450 118
2 222 45
3 126 352
4 456 22
5 256 445
6 163 193
7 102 244
8 1 189
9 414 25
10 16 462
11 286 90
12 316 450
13 157 251
14 311 8
15 205 385
16 433 154
17 250 401
18 446 376
19 253 401
20 145 255
21 91 308
22 448 193
23 52 196
24 129 466
25 221 145
26 173 253
27 235 489
28 203 392
29 486 260
30 146 190
31 391 79
32 91 140
33 226 36
34 16 479
35 184 161
36 233 275
37 215 428
38 469 267
39 123 97
40 479 90
41 242 398
42 344 477
43 387 293
44 114 372
45 52 261
EOF
